DIMACS_lns/graph-1000-43.col
p edge 1000 1763
e 1 913
e 1 235
e 1 441
e 1 588
e 1 923
e 2 388
e 2 509
e 2 668
e 2 146
e 3 455
e 3 731
e 3 513
e 3 46
e 4 997
e 4 87
e 4 300
e 5 971
e 5 311
e 5 653
e 9 730
e 9 938
e 9 639
e 9 221
e 9 597
e 9 861
e 9 122
e 9 897
e 9 382
e 11 864
e 11 741
e 11 865
e 11 731
e 11 516
e 11 978
e 11 483
e 13 580
e 13 952
e 13 564
e 13 716
e 13 870
e 13 151
e 14 731
e 14 826
e 14 485
e 14 73
e 15 670
e 15 82
e 15 861
e 15 60
e 15 881
e 16 539
e 16 806
e 16 705
e 16 679
e 19 616
e 19 279
e 19 488
e 19 363
e 19 810
e 20 391
e 20 939
e 20 255
e 20 322
e 20 405
e 21 913
e 21 41
e 21 836
e 23 86
e 23 487
e 23 111
e 24 648
e 24 461
e 24 234
e 24 630
e 24 511
e 24 966
e 25 349
e 25 301
e 25 892
e 25 61
e 25 640
e 26 338
e 26 133
e 26 930
e 26 267
e 26 72
e 26 589
e 27 889
e 27 848
e 27 970
e 27 660
e 30 579
e 30 777
e 30 408
e 31 917
e 31 621
e 31 348
e 31 112
e 33 666
e 33 913
e 33 910
e 35 158
e 35 960
e 35 156
e 35 444
e 35 972
e 35 589
e 35 756
e 35 322
e 35 469
e 38 744
e 38 467
e 38 667
e 38 701
e 38 363
e 41 408
e 41 169
e 41 697
e 41 264
e 44 718
e 44 485
e 44 344
e 46 581
e 46 741
e 46 135
e 46 527
e 47 495
e 47 164
e 47 400
e 47 331
e 47 81
e 47 210
e 48 199
e 48 661
e 48 913
e 48 664
e 48 630
e 48 473
e 49 146
e 49 914
e 49 935
e 49 819
e 49 932
e 49 685
e 49 656
e 51 116
e 51 843
e 51 81
e 52 470
e 52 707
e 52 564
e 52 441
e 54 635
e 54 287
e 54 238
e 54 699
e 55 371
e 55 922
e 55 193
e 55 437
e 55 500
e 55 402
e 55 671
e 56 549
e 56 531
e 56 976
e 56 57
e 56 599
e 56 396
e 56 955
e 57 417
e 57 684
e 59 625
e 59 526
e 59 426
e 59 470
e 60 390
e 60 971
e 61 776
e 61 419
e 61 639
e 62 675
e 62 309
e 62 686
e 62 989
e 63 349
e 63 681
e 63 634
e 63 561
e 64 218
e 64 543
e 64 311
e 64 895
e 65 416
e 65 437
e 65 329
e 68 598
e 68 288
e 68 314
e 68 907
e 70 263
e 70 751
e 70 696
e 70 362
e 70 340
e 70 79
e 71 612
e 71 940
e 71 790
e 71 723
e 72 759
e 72 131
e 73 636
e 73 640
e 73 954
e 75 334
e 75 226
e 75 418
e 75 251
e 75 208
e 75 255
e 75 768
e 76 145
e 76 221
e 76 165
e 77 960
e 77 643
e 77 481
e 78 553
e 78 79
e 78 902
e 79 312
e 79 656
e 79 305
e 79 470
e 80 215
e 80 382
e 80 99
e 81 95
e 81 591
e 81 667
e 81 731
e 81 405
e 81 895
e 81 756
e 82 375
e 82 702
e 82 829
e 83 675
e 83 411
e 83 640
e 84 370
e 84 178
e 84 303
e 84 597
e 86 954
e 86 570
e 86 930
e 87 687
e 87 583
e 87 257
e 87 935
e 88 411
e 88 606
e 88 754
e 88 461
e 89 559
e 89 739
e 89 327
e 90 769
e 90 349
e 90 752
e 90 247
e 91 369
e 91 924
e 91 596
e 91 181
e 93 141
e 93 571
e 93 114
e 93 602
e 94 256
e 94 926
e 94 691
e 94 938
e 95 495
e 95 670
e 95 287
e 98 454
e 98 524
e 98 669
e 98 440
e 98 331
e 98 441
e 98 339
e 99 797
e 99 427
e 100 882
e 100 653
e 100 955
e 101 235
e 101 590
e 101 262
e 102 589
e 102 169
e 102 300
e 102 929
e 103 169
e 103 275
e 103 971
e 103 152
e 103 838
e 103 940
e 103 496
e 105 411
e 105 653
e 105 598
e 106 930
e 106 456
e 106 393
e 106 563
e 106 920
e 108 671
e 108 284
e 108 207
e 108 550
e 109 340
e 109 286
e 109 829
e 111 865
e 111 748
e 111 434
e 111 312
e 111 368
e 112 159
e 112 292
e 112 509
e 113 380
e 113 490
e 113 197
e 114 118
e 114 122
e 115 543
e 115 655
e 115 838
e 115 899
e 115 464
e 115 989
e 116 292
e 116 222
e 116 439
e 116 969
e 118 346
e 118 189
e 118 856
e 119 516
e 119 958
e 119 358
e 119 423
e 121 584
e 121 627
e 121 181
e 121 180
e 122 971
e 122 879
e 122 664
e 122 729
e 122 471
e 123 708
e 123 451
e 123 982
e 124 586
e 124 444
e 124 233
e 124 157
e 125 292
e 125 720
e 125 575
e 125 692
e 127 524
e 127 695
e 127 430
e 127 387
e 127 829
e 129 196
e 129 550
e 129 574
e 129 452
e 130 973
e 130 689
e 130 359
e 131 966
e 131 953
e 131 338
e 131 273
e 133 143
e 133 262
e 133 634
e 133 773
e 133 180
e 135 390
e 135 310
e 135 374
e 135 240
e 136 534
e 136 938
e 136 492
e 136 790
e 137 864
e 137 457
e 137 980
e 137 319
e 139 704
e 139 714
e 139 206
e 139 720
e 139 541
e 139 747
e 139 492
e 139 935
e 140 171
e 140 170
e 140 457
e 140 337
e 141 483
e 141 535
e 143 465
e 143 503
e 145 828
e 145 303
e 145 767
e 145 339
e 145 269
e 146 259
e 146 682
e 148 572
e 148 787
e 148 235
e 149 309
e 149 708
e 149 365
e 150 913
e 150 481
e 150 431
e 151 750
e 151 955
e 151 769
e 152 491
e 152 876
e 152 408
e 153 413
e 153 695
e 153 686
e 153 171
e 154 157
e 154 912
e 154 295
e 155 808
e 155 962
e 155 585
e 156 264
e 156 486
e 157 269
e 157 454
e 158 689
e 158 270
e 159 777
e 159 172
e 159 485
e 159 756
e 160 913
e 160 836
e 160 586
e 163 409
e 163 863
e 163 627
e 163 513
e 163 421
e 163 560
e 164 748
e 164 752
e 164 717
e 164 350
e 165 893
e 165 393
e 165 248
e 165 497
e 167 928
e 167 580
e 167 278
e 167 226
e 167 966
e 169 556
e 169 233
e 169 840
e 170 772
e 170 494
e 170 728
e 170 659
e 171 921
e 171 471
e 171 509
e 171 465
e 171 704
e 172 444
e 172 355
e 172 971
e 173 222
e 173 460
e 173 799
e 174 711
e 174 514
e 174 244
e 175 639
e 175 792
e 175 939
e 175 828
e 175 270
e 175 740
e 178 866
e 178 258
e 178 791
e 179 378
e 179 732
e 179 844
e 179 576
e 179 921
e 179 454
e 179 298
e 180 313
e 180 900
e 180 815
e 180 310
e 181 801
e 181 754
e 181 644
e 181 699
e 181 275
e 181 528
e 182 963
e 182 983
e 182 585
e 182 809
e 183 425
e 183 589
e 183 457
e 186 640
e 186 692
e 186 342
e 188 648
e 188 862
e 188 561
e 188 288
e 188 208
e 188 483
e 188 537
e 188 735
e 188 872
e 189 994
e 189 556
e 189 983
e 189 634
e 189 996
e 191 495
e 191 556
e 191 773
e 193 718
e 193 768
e 194 616
e 194 766
e 194 300
e 194 583
e 194 236
e 195 199
e 195 718
e 195 290
e 195 539
e 195 375
e 196 913
e 196 329
e 196 569
e 196 756
e 196 683
e 196 872
e 197 275
e 197 871
e 198 861
e 198 319
e 198 409
e 198 341
e 199 616
e 199 519
e 199 962
e 199 523
e 199 470
e 200 505
e 200 677
e 200 735
e 201 993
e 201 331
e 201 416
e 201 651
e 203 370
e 203 497
e 203 791
e 203 785
e 204 976
e 204 717
e 204 970
e 204 952
e 205 808
e 205 656
e 205 949
e 206 508
e 206 869
e 206 680
e 206 549
e 207 212
e 207 946
e 207 337
e 207 779
e 207 974
e 208 285
e 208 668
e 208 789
e 210 511
e 210 369
e 210 896
e 211 963
e 211 764
e 211 685
e 211 219
e 211 930
e 211 311
e 212 993
e 212 493
e 212 657
e 212 835
e 212 838
e 212 996
e 212 526
e 214 534
e 214 226
e 214 799
e 215 602
e 215 538
e 218 522
e 218 930
e 218 531
e 218 895
e 219 931
e 219 293
e 219 423
e 221 741
e 221 789
e 221 594
e 221 731
e 222 982
e 222 375
e 222 234
e 225 388
e 225 793
e 225 768
e 225 312
e 225 497
e 226 743
e 226 954
e 226 813
e 228 407
e 228 452
e 228 247
e 228 660
e 228 294
e 228 969
e 232 603
e 232 395
e 232 576
e 232 380
e 232 975
e 232 417
e 233 323
e 233 248
e 233 805
e 233 578
e 234 832
e 235 427
e 235 949
e 235 837
e 236 536
e 236 662
e 238 438
e 238 353
e 238 677
e 238 799
e 239 847
e 239 505
e 239 390
e 239 763
e 240 667
e 240 616
e 240 565
e 240 308
e 240 819
e 244 360
e 244 852
e 247 697
e 247 575
e 247 874
e 247 661
e 247 504
e 248 505
e 248 666
e 248 728
e 248 356
e 248 324
e 251 865
e 251 517
e 251 584
e 251 264
e 251 470
e 251 443
e 251 305
e 255 784
e 255 256
e 255 782
e 255 787
e 256 853
e 256 655
e 256 879
e 256 583
e 256 343
e 256 980
e 257 830
e 257 995
e 257 526
e 258 503
e 258 571
e 259 326
e 259 346
e 259 815
e 259 683
e 260 471
e 260 686
e 260 882
e 261 644
e 261 571
e 261 935
e 262 461
e 262 533
e 262 481
e 262 680
e 262 914
e 262 343
e 262 544
e 263 407
e 263 272
e 263 632
e 264 656
e 264 664
e 265 520
e 265 440
e 265 343
e 265 463
e 265 789
e 266 730
e 266 409
e 266 517
e 266 652
e 267 578
e 267 892
e 267 782
e 267 930
e 269 324
e 269 912
e 270 308
e 270 537
e 270 559
e 272 374
e 272 608
e 273 902
e 273 459
e 273 425
e 273 714
e 273 429
e 274 684
e 274 826
e 274 491
e 274 535
e 274 513
e 275 362
e 275 752
e 275 725
e 275 573
e 278 755
e 278 309
e 278 677
e 279 408
e 279 479
e 279 424
e 279 644
e 281 815
e 281 520
e 281 664
e 281 619
e 282 317
e 282 718
e 282 488
e 282 590
e 284 400
e 284 661
e 284 552
e 285 479
e 285 323
e 286 563
e 286 586
e 286 558
e 286 889
e 286 392
e 286 339
e 287 964
e 287 326
e 287 371
e 288 417
e 288 782
e 288 382
e 288 410
e 290 754
e 290 983
e 292 348
e 292 975
e 292 471
e 292 843
e 292 953
e 293 791
e 293 815
e 293 857
e 293 626
e 293 399
e 293 301
e 293 559
e 294 470
e 294 866
e 295 362
e 295 307
e 298 680
e 298 940
e 298 915
e 298 407
e 300 744
e 300 529
e 301 808
e 303 920
e 303 508
e 303 978
e 304 860
e 304 840
e 304 391
e 304 642
e 305 574
e 305 949
e 305 856
e 305 579
e 305 950
e 305 877
e 305 910
e 306 480
e 306 731
e 306 974
e 306 739
e 306 657
e 307 639
e 307 802
e 307 752
e 307 656
e 308 523
e 308 988
e 308 785
e 308 601
e 309 320
e 309 853
e 310 924
e 311 740
e 311 390
e 311 454
e 311 634
e 312 711
e 313 729
e 313 591
e 313 687
e 314 606
e 314 318
e 314 494
e 314 542
e 314 810
e 316 714
e 316 539
e 316 395
e 317 872
e 317 714
e 317 784
e 318 669
e 318 427
e 318 632
e 318 707
e 319 705
e 319 998
e 319 525
e 320 336
e 320 782
e 320 759
e 322 382
e 322 809
e 322 731
e 322 642
e 322 922
e 323 994
e 323 653
e 323 524
e 323 483
e 323 777
e 323 599
e 323 766
e 323 501
e 324 603
e 326 355
e 326 843
e 326 999
e 326 548
e 326 612
e 326 455
e 326 562
e 327 906
e 327 392
e 327 419
e 327 913
e 327 335
e 327 896
e 327 707
e 328 503
e 328 815
e 328 558
e 328 572
e 329 639
e 329 450
e 329 725
e 330 881
e 330 792
e 330 929
e 330 685
e 331 718
e 334 465
e 334 450
e 334 643
e 335 705
e 335 882
e 335 577
e 336 923
e 336 906
e 337 968
e 338 519
e 338 407
e 338 474
e 339 860
e 339 400
e 340 930
e 340 553
e 340 626
e 341 769
e 341 847
e 341 848
e 341 922
e 342 933
e 342 939
e 342 355
e 342 862
e 342 832
e 343 773
e 343 836
e 343 678
e 344 370
e 344 751
e 344 752
e 345 744
e 345 723
e 345 898
e 346 864
e 346 969
e 348 608
e 348 914
e 348 659
e 349 969
e 349 408
e 349 913
e 350 493
e 350 522
e 351 457
e 351 518
e 351 978
e 352 438
e 352 900
e 352 425
e 353 785
e 353 699
e 354 598
e 354 599
e 354 490
e 355 509
e 355 424
e 355 452
e 355 718
e 355 599
e 355 840
e 356 442
e 356 549
e 356 740
e 356 931
e 356 567
e 358 445
e 358 752
e 358 935
e 358 616
e 359 811
e 359 550
e 359 932
e 359 656
e 359 788
e 359 750
e 360 900
e 360 744
e 360 413
e 360 581
e 362 644
e 362 690
e 363 851
e 363 802
e 365 423
e 365 640
e 365 799
e 365 417
e 365 575
e 366 937
e 366 752
e 366 525
e 368 520
e 368 611
e 368 441
e 368 790
e 368 651
e 369 417
e 369 396
e 369 459
e 369 550
e 370 848
e 370 588
e 371 792
e 371 789
e 371 595
e 374 702
e 374 584
e 375 410
e 375 408
e 375 976
e 375 893
e 375 685
e 375 806
e 375 558
e 375 700
e 376 500
e 376 876
e 376 454
e 378 545
e 378 592
e 378 856
e 378 925
e 378 416
e 378 486
e 378 773
e 378 696
e 378 669
e 378 921
e 380 561
e 380 416
e 380 488
e 382 561
e 383 869
e 383 486
e 383 810
e 383 485
e 383 740
e 383 615
e 385 950
e 385 818
e 385 652
e 385 655
e 385 409
e 387 463
e 387 907
e 387 560
e 388 754
e 388 927
e 388 480
e 388 910
e 388 616
e 390 548
e 390 860
e 390 442
e 390 523
e 391 907
e 391 783
e 392 946
e 392 482
e 393 996
e 394 994
e 394 577
e 394 730
e 394 874
e 395 682
e 395 978
e 396 598
e 396 704
e 396 527
e 396 402
e 397 556
e 397 675
e 397 491
e 397 529
e 399 795
e 399 626
e 400 806
e 402 407
e 405 563
e 405 534
e 407 534
e 407 590
e 407 560
e 408 896
e 408 605
e 408 470
e 408 870
e 408 851
e 410 614
e 410 892
e 410 997
e 411 926
e 411 974
e 411 696
e 411 865
e 411 806
e 411 518
e 413 864
e 413 832
e 413 776
e 413 723
e 414 661
e 414 658
e 414 759
e 414 448
e 414 421
e 416 438
e 416 713
e 416 989
e 417 486
e 417 653
e 417 945
e 417 678
e 418 474
e 418 643
e 418 954
e 418 764
e 419 811
e 419 785
e 419 925
e 419 555
e 421 828
e 423 792
e 423 444
e 423 581
e 424 992
e 425 432
e 425 978
e 425 845
e 425 829
e 426 763
e 426 564
e 426 927
e 426 432
e 426 607
e 427 912
e 429 791
e 429 874
e 430 708
e 430 917
e 430 626
e 431 542
e 431 658
e 431 501
e 432 796
e 434 831
e 434 606
e 437 539
e 437 537
e 438 792
e 438 976
e 439 679
e 439 614
e 440 968
e 440 627
e 442 839
e 442 707
e 442 877
e 443 531
e 443 995
e 444 627
e 444 542
e 445 996
e 445 790
e 446 827
e 446 765
e 446 969
e 448 459
e 448 893
e 448 687
e 449 723
e 449 819
e 449 863
e 449 844
e 450 691
e 451 567
e 451 655
e 451 507
e 452 558
e 452 694
e 453 767
e 453 490
e 453 806
e 454 866
e 455 801
e 455 493
e 455 727
e 456 837
e 456 471
e 456 690
e 459 463
e 459 552
e 459 461
e 460 492
e 460 731
e 461 550
e 461 950
e 461 696
e 461 879
e 463 750
e 463 525
e 463 845
e 464 852
e 464 601
e 465 785
e 467 513
e 467 827
e 469 772
e 469 735
e 469 878
e 469 972
e 470 699
e 471 948
e 473 573
e 473 982
e 474 566
e 479 572
e 480 537
e 480 937
e 480 790
e 480 555
e 481 991
e 481 732
e 482 953
e 482 518
e 482 508
e 483 507
e 484 644
e 484 603
e 484 669
e 484 517
e 485 953
e 485 653
e 485 614
e 485 612
e 485 545
e 485 816
e 486 869
e 487 993
e 487 681
e 487 747
e 488 600
e 488 926
e 488 864
e 488 685
e 490 573
e 491 653
e 491 548
e 491 810
e 492 689
e 493 589
e 493 670
e 493 862
e 493 922
e 494 679
e 494 711
e 496 557
e 496 839
e 497 843
e 497 581
e 500 806
e 500 671
e 500 543
e 501 578
e 503 704
e 503 666
e 504 697
e 504 860
e 504 716
e 505 605
e 507 509
e 507 526
e 507 952
e 507 772
e 508 793
e 509 898
e 511 555
e 513 788
e 514 705
e 514 686
e 515 679
e 515 619
e 515 700
e 516 784
e 516 873
e 517 700
e 518 830
e 518 677
e 518 755
e 519 940
e 519 736
e 519 644
e 519 532
e 520 991
e 520 818
e 520 713
e 522 845
e 523 592
e 525 651
e 525 955
e 525 697
e 526 603
e 527 815
e 528 962
e 528 602
e 528 625
e 528 679
e 528 626
e 529 621
e 531 656
e 532 567
e 532 639
e 532 772
e 533 813
e 533 612
e 534 640
e 534 583
e 534 935
e 535 678
e 535 766
e 535 978
e 536 666
e 536 599
e 536 626
e 538 945
e 538 996
e 538 756
e 538 612
e 539 1000
e 539 869
e 541 764
e 541 555
e 541 763
e 542 975
e 542 928
e 542 596
e 542 740
e 542 580
e 544 793
e 544 563
e 545 828
e 545 648
e 548 621
e 548 604
e 548 980
e 548 881
e 550 740
e 550 980
e 552 625
e 552 996
e 552 681
e 553 859
e 553 895
e 555 879
e 555 975
e 555 741
e 556 843
e 556 966
e 557 683
e 557 813
e 558 606
e 558 639
e 558 870
e 558 873
e 558 657
e 560 694
e 561 986
e 561 847
e 561 571
e 562 569
e 562 865
e 562 567
e 563 603
e 563 567
e 563 667
e 563 759
e 564 963
e 564 595
e 565 635
e 565 811
e 565 790
e 566 701
e 566 922
e 567 963
e 567 871
e 567 717
e 569 840
e 569 994
e 569 962
e 570 643
e 570 607
e 571 973
e 573 855
e 573 924
e 574 594
e 574 755
e 575 964
e 576 774
e 576 948
e 576 1000
e 577 832
e 577 992
e 577 711
e 578 741
e 578 910
e 579 857
e 580 827
e 581 585
e 581 827
e 583 949
e 583 691
e 585 590
e 586 711
e 586 859
e 586 597
e 586 954
e 588 873
e 589 743
e 591 671
e 591 925
e 591 642
e 591 605
e 591 960
e 592 750
e 592 723
e 594 870
e 594 829
e 594 732
e 595 969
e 596 604
e 597 713
e 598 870
e 598 601
e 598 739
e 598 675
e 599 707
e 599 655
e 600 716
e 600 659
e 602 931
e 602 699
e 602 813
e 602 653
e 603 992
e 604 947
e 605 619
e 605 667
e 606 946
e 606 711
e 607 736
e 607 621
e 607 954
e 608 663
e 608 972
e 611 783
e 611 826
e 611 735
e 611 819
e 611 837
e 614 664
e 615 982
e 615 663
e 616 662
e 616 703
e 619 939
e 619 797
e 619 863
e 620 764
e 620 802
e 620 816
e 625 720
e 625 920
e 626 865
e 626 801
e 627 797
e 630 940
e 632 768
e 634 694
e 634 670
e 635 988
e 636 697
e 636 975
e 636 784
e 639 955
e 639 933
e 639 796
e 639 922
e 639 913
e 639 791
e 642 756
e 643 666
e 643 986
e 643 690
e 643 773
e 644 836
e 644 818
e 644 752
e 648 768
e 648 663
e 648 859
e 648 815
e 648 805
e 651 765
e 651 827
e 651 744
e 652 958
e 653 910
e 655 939
e 657 684
e 657 969
e 657 677
e 658 677
e 659 912
e 660 741
e 660 703
e 660 765
e 661 684
e 661 763
e 661 795
e 661 1000
e 662 764
e 662 962
e 662 788
e 662 667
e 663 940
e 666 932
e 668 920
e 668 835
e 668 701
e 668 988
e 669 976
e 669 836
e 669 881
e 670 675
e 671 769
e 675 859
e 675 912
e 677 929
e 678 927
e 678 763
e 681 998
e 681 830
e 682 729
e 682 826
e 682 857
e 683 827
e 684 922
e 684 736
e 684 902
e 685 937
e 685 808
e 689 927
e 689 973
e 690 739
e 690 718
e 691 950
e 691 939
e 692 720
e 694 714
e 694 920
e 695 897
e 696 913
e 696 725
e 699 983
e 699 914
e 700 815
e 701 898
e 701 823
e 701 811
e 702 844
e 703 853
e 707 720
e 708 796
e 711 725
e 711 935
e 711 767
e 711 851
e 711 729
e 713 973
e 714 983
e 716 917
e 716 988
e 717 792
e 718 879
e 718 986
e 718 873
e 718 906
e 723 851
e 723 788
e 727 907
e 727 744
e 728 847
e 728 845
e 729 840
e 729 997
e 730 855
e 730 947
e 730 873
e 731 930
e 732 789
e 736 895
e 736 827
e 736 843
e 740 947
e 740 930
e 741 930
e 741 827
e 743 940
e 747 988
e 748 950
e 750 937
e 751 983
e 754 902
e 754 766
e 755 994
e 756 889
e 756 924
e 756 772
e 762 776
e 762 926
e 762 830
e 763 826
e 768 805
e 769 931
e 769 893
e 769 869
e 772 928
e 774 954
e 774 928
e 776 928
e 776 787
e 777 950
e 779 915
e 779 895
e 782 809
e 783 960
e 785 933
e 787 869
e 787 816
e 788 958
e 792 974
e 793 927
e 795 876
e 802 843
e 805 964
e 808 832
e 809 892
e 809 983
e 811 827
e 811 870
e 818 878
e 823 914
e 823 945
e 826 847
e 826 988
e 827 851
e 827 948
e 830 877
e 831 874
e 831 976
e 831 989
e 832 920
e 835 853
e 836 855
e 836 851
e 839 879
e 840 945
e 840 960
e 840 902
e 845 923
e 847 982
e 847 962
e 851 999
e 851 866
e 851 982
e 852 991
e 856 915
e 860 933
e 860 906
e 862 997
e 871 899
e 874 999
e 878 881
e 879 970
e 879 929
e 892 929
e 893 968
e 897 996
e 898 998
e 899 991
e 907 991
e 910 946
e 914 970
e 915 958
e 921 949
e 923 980
e 926 939
e 930 953
e 931 999
e 947 951
e 951 995
e 951 986
e 953 969
e 966 973
e 968 972
e 970 998
e 975 976
e 988 1000
e 991 996
e 991 1000
e 995 1000
